param n := 3;
set S[1] := 1 2 3 4 5 6 7 8 9 10;
set S[2] := 1 2 3 4 5 6 7 8 9 10;
set S[3] := 1 2 3 4 5 6 7 8 9 10;

param A :=
[*,1,1,1]  1 245 2 467 3 832
[*,2,1,1]  1 462 2 311 3 566
[*,3,1,1]  1 473 2 797 3 633
[*,4,1,1]  1 429 2 729 3 287
[*,5,1,1]  1 574 2 610 3 351
[*,6,1,1]  1 519 2 442 3 592
[*,7,1,1]  1 547 2 318 3 465
[*,8,1,1]  1 567 2 673 3 293
[*,9,1,1]  1 497 2 481 3 423
[*,10,1,1]  1 406 2 556 3 419
[*,1,2,1]  1 344 2 481 3 509
[*,2,2,1]  1 708 2 575 3 271
[*,3,2,1]  1 559 2 376 3 501
[*,4,2,1]  1 539 2 214 3 583
[*,5,2,1]  1 364 2 629 3 474
[*,6,2,1]  1 480 2 511 3 529
[*,7,2,1]  1 555 2 470 3 366
[*,8,2,1]  1 213 2 516 3 773
[*,9,2,1]  1 441 2 537 3 204
[*,10,2,1]  1 536 2 309 3 555
[*,1,3,1]  1 507 2 396 3 447
[*,2,3,1]  1 652 2 393 3 506
[*,3,3,1]  1 770 2 241 3 583
[*,4,3,1]  1 223 2 385 3 1000
[*,5,3,1]  1 462 2 611 3 385
[*,6,3,1]  1 575 2 408 3 664
[*,7,3,1]  1 473 2 428 3 769
[*,8,3,1]  1 415 2 593 3 604
[*,9,3,1]  1 522 2 615 3 393
[*,10,3,1]  1 324 2 395 3 661
[*,1,4,1]  1 431 2 371 3 546
[*,2,4,1]  1 409 2 162 3 486
[*,3,4,1]  1 664 2 555 3 497
[*,4,4,1]  1 173 2 810 3 489
[*,5,4,1]  1 572 2 471 3 300
[*,6,4,1]  1 692 2 317 3 555
[*,7,4,1]  1 783 2 402 3 509
[*,8,4,1]  1 588 2 572 3 404
[*,9,4,1]  1 387 2 474 3 415
[*,10,4,1]  1 310 2 662 3 729
[*,1,5,1]  1 586 2 535 3 535
[*,2,5,1]  1 415 2 427 3 560
[*,3,5,1]  1 677 2 472 3 291
[*,4,5,1]  1 537 2 420 3 381
[*,5,5,1]  1 527 2 541 3 283
[*,6,5,1]  1 539 2 394 3 560
[*,7,5,1]  1 658 2 212 3 461
[*,8,5,1]  1 326 2 335 3 590
[*,9,5,1]  1 355 2 627 3 481
[*,10,5,1]  1 493 2 271 3 806
[*,1,6,1]  1 571 2 505 3 434
[*,2,6,1]  1 529 2 470 3 618
[*,3,6,1]  1 549 2 491 3 680
[*,4,6,1]  1 643 2 473 3 548
[*,5,6,1]  1 483 2 401 3 431
[*,6,6,1]  1 402 2 661 3 510
[*,7,6,1]  1 626 2 699 3 403
[*,8,6,1]  1 332 2 609 3 569
[*,9,6,1]  1 490 2 482 3 638
[*,10,6,1]  1 159 2 531 3 323
[*,1,7,1]  1 621 2 869 3 368
[*,2,7,1]  1 549 2 365 3 181
[*,3,7,1]  1 582 2 348 3 423
[*,4,7,1]  1 382 2 265 3 422
[*,5,7,1]  1 362 2 436 3 702
[*,6,7,1]  1 431 2 328 3 515
[*,7,7,1]  1 482 2 329 3 568
[*,8,7,1]  1 601 2 341 3 410
[*,9,7,1]  1 518 2 371 3 529
[*,10,7,1]  1 439 2 447 3 591
[*,1,8,1]  1 201 2 506 3 685
[*,2,8,1]  1 611 2 336 3 592
[*,3,8,1]  1 598 2 301 3 597
[*,4,8,1]  1 557 2 473 3 388
[*,5,8,1]  1 319 2 570 3 494
[*,6,8,1]  1 584 2 528 3 347
[*,7,8,1]  1 461 2 424 3 346
[*,8,8,1]  1 490 2 810 3 529
[*,9,8,1]  1 371 2 407 3 656
[*,10,8,1]  1 379 2 632 3 357
[*,1,9,1]  1 533 2 593 3 408
[*,2,9,1]  1 438 2 351 3 436
[*,3,9,1]  1 358 2 271 3 534
[*,4,9,1]  1 206 2 676 3 598
[*,5,9,1]  1 627 2 410 3 542
[*,6,9,1]  1 444 2 535 3 400
[*,7,9,1]  1 956 2 333 3 524
[*,8,9,1]  1 473 2 510 3 634
[*,9,9,1]  1 602 2 427 3 495
[*,10,9,1]  1 386 2 436 3 523
[*,1,10,1]  1 452 2 336 3 445
[*,2,10,1]  1 463 2 200 3 490
[*,3,10,1]  1 543 2 432 3 567
[*,4,10,1]  1 519 2 644 3 339
[*,5,10,1]  1 402 2 649 3 435
[*,6,10,1]  1 463 2 400 3 469
[*,7,10,1]  1 290 2 619 3 488
[*,8,10,1]  1 416 2 441 3 433
[*,9,10,1]  1 591 2 567 3 527
[*,10,10,1]  1 545 2 571 3 340
[*,1,1,2]  1 603 2 489 3 364
[*,2,1,2]  1 385 2 447 3 606
[*,3,1,2]  1 278 2 528 3 552
[*,4,1,2]  1 244 2 572 3 531
[*,5,1,2]  1 211 2 381 3 610
[*,6,1,2]  1 525 2 734 3 261
[*,7,1,2]  1 246 2 720 3 414
[*,8,1,2]  1 504 2 355 3 713
[*,9,1,2]  1 346 2 666 3 540
[*,10,1,2]  1 422 2 622 3 445
[*,1,2,2]  1 664 2 468 3 510
[*,2,2,2]  1 429 2 434 3 492
[*,3,2,2]  1 353 2 483 3 822
[*,4,2,2]  1 559 2 385 3 574
[*,5,2,2]  1 332 2 535 3 589
[*,6,2,2]  1 485 2 502 3 477
[*,7,2,2]  1 405 2 540 3 591
[*,8,2,2]  1 447 2 686 3 638
[*,9,2,2]  1 532 2 518 3 521
[*,10,2,2]  1 534 2 380 3 503
[*,1,3,2]  1 542 2 403 3 424
[*,2,3,2]  1 562 2 523 3 376
[*,3,3,2]  1 696 2 373 3 266
[*,4,3,2]  1 327 2 575 3 697
[*,5,3,2]  1 474 2 543 3 749
[*,6,3,2]  1 649 2 447 3 164
[*,7,3,2]  1 322 2 568 3 378
[*,8,3,2]  1 520 2 528 3 373
[*,9,3,2]  1 523 2 462 3 498
[*,10,3,2]  1 421 2 398 3 403
[*,1,4,2]  1 292 2 566 3 384
[*,2,4,2]  1 621 2 522 3 520
[*,3,4,2]  1 460 2 438 3 594
[*,4,4,2]  1 436 2 564 3 432
[*,5,4,2]  1 588 2 704 3 481
[*,6,4,2]  1 475 2 634 3 147
[*,7,4,2]  1 590 2 539 3 428
[*,8,4,2]  1 716 2 547 3 368
[*,9,4,2]  1 586 2 303 3 382
[*,10,4,2]  1 360 2 398 3 367
[*,1,5,2]  1 626 2 381 3 520
[*,2,5,2]  1 587 2 389 3 613
[*,3,5,2]  1 654 2 544 3 459
[*,4,5,2]  1 735 2 568 3 402
[*,5,5,2]  1 551 2 527 3 344
[*,6,5,2]  1 349 2 501 3 562
[*,7,5,2]  1 365 2 828 3 378
[*,8,5,2]  1 570 2 373 3 521
[*,9,5,2]  1 283 2 701 3 457
[*,10,5,2]  1 404 2 594 3 563
[*,1,6,2]  1 338 2 418 3 569
[*,2,6,2]  1 464 2 190 3 390
[*,3,6,2]  1 403 2 517 3 243
[*,4,6,2]  1 408 2 487 3 294
[*,5,6,2]  1 382 2 625 3 746
[*,6,6,2]  1 355 2 347 3 568
[*,7,6,2]  1 624 2 409 3 409
[*,8,6,2]  1 540 2 668 3 317
[*,9,6,2]  1 384 2 489 3 297
[*,10,6,2]  1 593 2 433 3 628
[*,1,7,2]  1 301 2 801 3 553
[*,2,7,2]  1 622 2 686 3 491
[*,3,7,2]  1 584 2 497 3 503
[*,4,7,2]  1 502 2 259 3 705
[*,5,7,2]  1 452 2 359 3 629
[*,6,7,2]  1 257 2 528 3 560
[*,7,7,2]  1 407 2 545 3 325
[*,8,7,2]  1 498 2 544 3 480
[*,9,7,2]  1 341 2 532 3 517
[*,10,7,2]  1 727 2 498 3 572
[*,1,8,2]  1 773 2 465 3 460
[*,2,8,2]  1 669 2 431 3 580
[*,3,8,2]  1 425 2 488 3 576
[*,4,8,2]  1 344 2 483 3 585
[*,5,8,2]  1 444 2 377 3 449
[*,6,8,2]  1 347 2 553 3 683
[*,7,8,2]  1 611 2 256 3 555
[*,8,8,2]  1 638 2 359 3 472
[*,9,8,2]  1 366 2 307 3 469
[*,10,8,2]  1 691 2 328 3 514
[*,1,9,2]  1 822 2 473 3 481
[*,2,9,2]  1 366 2 465 3 324
[*,3,9,2]  1 621 2 288 3 551
[*,4,9,2]  1 693 2 390 3 432
[*,5,9,2]  1 586 2 323 3 678
[*,6,9,2]  1 588 2 288 3 642
[*,7,9,2]  1 426 2 582 3 326
[*,8,9,2]  1 341 2 675 3 404
[*,9,9,2]  1 490 2 571 3 459
[*,10,9,2]  1 454 2 555 3 413
[*,1,10,2]  1 225 2 665 3 495
[*,2,10,2]  1 1 2 483 3 597
[*,3,10,2]  1 322 2 489 3 769
[*,4,10,2]  1 285 2 372 3 489
[*,5,10,2]  1 658 2 549 3 538
[*,6,10,2]  1 546 2 243 3 588
[*,7,10,2]  1 677 2 800 3 468
[*,8,10,2]  1 496 2 502 3 417
[*,9,10,2]  1 314 2 335 3 597
[*,10,10,2]  1 655 2 396 3 499
[*,1,1,3]  1 369 2 531 3 526
[*,2,1,3]  1 514 2 469 3 454
[*,3,1,3]  1 239 2 368 3 510
[*,4,1,3]  1 473 2 558 3 558
[*,5,1,3]  1 745 2 376 3 618
[*,6,1,3]  1 377 2 826 3 455
[*,7,1,3]  1 316 2 329 3 605
[*,8,1,3]  1 368 2 686 3 402
[*,9,1,3]  1 349 2 471 3 577
[*,10,1,3]  1 201 2 615 3 630
[*,1,2,3]  1 383 2 545 3 457
[*,2,2,3]  1 344 2 541 3 511
[*,3,2,3]  1 521 2 393 3 547
[*,4,2,3]  1 624 2 348 3 406
[*,5,2,3]  1 525 2 592 3 443
[*,6,2,3]  1 410 2 444 3 640
[*,7,2,3]  1 522 2 492 3 528
[*,8,2,3]  1 466 2 444 3 577
[*,9,2,3]  1 732 2 446 3 556
[*,10,2,3]  1 201 2 626 3 644
[*,1,3,3]  1 402 2 386 3 513
[*,2,3,3]  1 479 2 379 3 453
[*,3,3,3]  1 224 2 395 3 516
[*,4,3,3]  1 740 2 547 3 478
[*,5,3,3]  1 544 2 619 3 412
[*,6,3,3]  1 752 2 442 3 503
[*,7,3,3]  1 342 2 239 3 691
[*,8,3,3]  1 591 2 420 3 409
[*,9,3,3]  1 404 2 432 3 443
[*,10,3,3]  1 390 2 326 3 732
[*,1,4,3]  1 309 2 421 3 254
[*,2,4,3]  1 414 2 344 3 599
[*,3,4,3]  1 589 2 583 3 497
[*,4,4,3]  1 374 2 436 3 279
[*,5,4,3]  1 512 2 423 3 596
[*,6,4,3]  1 412 2 406 3 496
[*,7,4,3]  1 580 2 514 3 767
[*,8,4,3]  1 423 2 538 3 386
[*,9,4,3]  1 473 2 702 3 370
[*,10,4,3]  1 467 2 397 3 772
[*,1,5,3]  1 567 2 240 3 419
[*,2,5,3]  1 402 2 317 3 654
[*,3,5,3]  1 519 2 594 3 283
[*,4,5,3]  1 851 2 314 3 603
[*,5,5,3]  1 376 2 491 3 488
[*,6,5,3]  1 455 2 354 3 547
[*,7,5,3]  1 564 2 479 3 473
[*,8,5,3]  1 469 2 257 3 477
[*,9,5,3]  1 588 2 461 3 182
[*,10,5,3]  1 311 2 450 3 741
[*,1,6,3]  1 508 2 175 3 729
[*,2,6,3]  1 515 2 554 3 506
[*,3,6,3]  1 516 2 151 3 424
[*,4,6,3]  1 353 2 371 3 444
[*,5,6,3]  1 417 2 662 3 695
[*,6,6,3]  1 336 2 475 3 460
[*,7,6,3]  1 603 2 370 3 831
[*,8,6,3]  1 458 2 597 3 588
[*,9,6,3]  1 615 2 556 3 242
[*,10,6,3]  1 441 2 470 3 565
[*,1,7,3]  1 234 2 465 3 298
[*,2,7,3]  1 439 2 419 3 588
[*,3,7,3]  1 472 2 397 3 417
[*,4,7,3]  1 614 2 494 3 477
[*,5,7,3]  1 476 2 550 3 631
[*,6,7,3]  1 580 2 554 3 479
[*,7,7,3]  1 421 2 540 3 577
[*,8,7,3]  1 363 2 499 3 483
[*,9,7,3]  1 867 2 469 3 488
[*,10,7,3]  1 395 2 579 3 406
[*,1,8,3]  1 601 2 474 3 416
[*,2,8,3]  1 298 2 615 3 581
[*,3,8,3]  1 300 2 597 3 326
[*,4,8,3]  1 308 2 501 3 473
[*,5,8,3]  1 453 2 422 3 434
[*,6,8,3]  1 454 2 659 3 533
[*,7,8,3]  1 271 2 391 3 595
[*,8,8,3]  1 552 2 500 3 466
[*,9,8,3]  1 479 2 551 3 677
[*,10,8,3]  1 312 2 445 3 928
[*,1,9,3]  1 538 2 494 3 459
[*,2,9,3]  1 610 2 555 3 432
[*,3,9,3]  1 467 2 274 3 588
[*,4,9,3]  1 645 2 421 3 457
[*,5,9,3]  1 667 2 563 3 320
[*,6,9,3]  1 493 2 610 3 544
[*,7,9,3]  1 531 2 612 3 431
[*,8,9,3]  1 256 2 300 3 629
[*,9,9,3]  1 485 2 562 3 558
[*,10,9,3]  1 517 2 245 3 423
[*,1,10,3]  1 559 2 189 3 587
[*,2,10,3]  1 339 2 493 3 268
[*,3,10,3]  1 341 2 709 3 515
[*,4,10,3]  1 628 2 381 3 366
[*,5,10,3]  1 359 2 632 3 323
[*,6,10,3]  1 572 2 495 3 434
[*,7,10,3]  1 441 2 772 3 448
[*,8,10,3]  1 560 2 746 3 502
[*,9,10,3]  1 492 2 234 3 438
[*,10,10,3]  1 483 2 476 3 677
[*,1,1,4]  1 429 2 618 3 433
[*,2,1,4]  1 648 2 437 3 422
[*,3,1,4]  1 478 2 610 3 301
[*,4,1,4]  1 240 2 458 3 432
[*,5,1,4]  1 598 2 504 3 376
[*,6,1,4]  1 285 2 668 3 425
[*,7,1,4]  1 684 2 266 3 383
[*,8,1,4]  1 249 2 639 3 610
[*,9,1,4]  1 696 2 368 3 270
[*,10,1,4]  1 313 2 485 3 515
[*,1,2,4]  1 495 2 721 3 537
[*,2,2,4]  1 461 2 408 3 568
[*,3,2,4]  1 687 2 572 3 273
[*,4,2,4]  1 502 2 390 3 631
[*,5,2,4]  1 718 2 500 3 398
[*,6,2,4]  1 603 2 554 3 574
[*,7,2,4]  1 530 2 206 3 558
[*,8,2,4]  1 518 2 580 3 411
[*,9,2,4]  1 496 2 580 3 449
[*,10,2,4]  1 508 2 483 3 484
[*,1,3,4]  1 627 2 253 3 576
[*,2,3,4]  1 525 2 550 3 276
[*,3,3,4]  1 608 2 410 3 360
[*,4,3,4]  1 403 2 440 3 416
[*,5,3,4]  1 326 2 539 3 583
[*,6,3,4]  1 472 2 546 3 168
[*,7,3,4]  1 444 2 671 3 547
[*,8,3,4]  1 719 2 411 3 302
[*,9,3,4]  1 478 2 548 3 124
[*,10,3,4]  1 331 2 554 3 546
[*,1,4,4]  1 660 2 411 3 601
[*,2,4,4]  1 605 2 315 3 393
[*,3,4,4]  1 318 2 697 3 590
[*,4,4,4]  1 451 2 447 3 457
[*,5,4,4]  1 324 2 652 3 499
[*,6,4,4]  1 473 2 555 3 573
[*,7,4,4]  1 411 2 349 3 409
[*,8,4,4]  1 691 2 477 3 281
[*,9,4,4]  1 361 2 448 3 614
[*,10,4,4]  1 589 2 591 3 434
[*,1,5,4]  1 345 2 375 3 575
[*,2,5,4]  1 568 2 471 3 340
[*,3,5,4]  1 319 2 231 3 433
[*,4,5,4]  1 558 2 616 3 527
[*,5,5,4]  1 617 2 545 3 234
[*,6,5,4]  1 362 2 701 3 774
[*,7,5,4]  1 423 2 406 3 584
[*,8,5,4]  1 390 2 483 3 433
[*,9,5,4]  1 497 2 447 3 594
[*,10,5,4]  1 505 2 256 3 557
[*,1,6,4]  1 402 2 518 3 548
[*,2,6,4]  1 255 2 464 3 728
[*,3,6,4]  1 468 2 177 3 477
[*,4,6,4]  1 472 2 379 3 368
[*,5,6,4]  1 505 2 570 3 422
[*,6,6,4]  1 544 2 228 3 450
[*,7,6,4]  1 915 2 595 3 296
[*,8,6,4]  1 635 2 501 3 493
[*,9,6,4]  1 496 2 480 3 433
[*,10,6,4]  1 571 2 500 3 471
[*,1,7,4]  1 310 2 534 3 462
[*,2,7,4]  1 588 2 411 3 511
[*,3,7,4]  1 504 2 532 3 565
[*,4,7,4]  1 606 2 315 3 547
[*,5,7,4]  1 566 2 726 3 463
[*,6,7,4]  1 463 2 364 3 665
[*,7,7,4]  1 562 2 395 3 415
[*,8,7,4]  1 445 2 726 3 491
[*,9,7,4]  1 238 2 508 3 569
[*,10,7,4]  1 419 2 401 3 381
[*,1,8,4]  1 555 2 360 3 538
[*,2,8,4]  1 637 2 426 3 429
[*,3,8,4]  1 627 2 581 3 378
[*,4,8,4]  1 579 2 711 3 209
[*,5,8,4]  1 615 2 381 3 572
[*,6,8,4]  1 704 2 717 3 451
[*,7,8,4]  1 568 2 515 3 232
[*,8,8,4]  1 540 2 351 3 548
[*,9,8,4]  1 534 2 336 3 451
[*,10,8,4]  1 279 2 487 3 644
[*,1,9,4]  1 713 2 587 3 480
[*,2,9,4]  1 646 2 462 3 619
[*,3,9,4]  1 580 2 711 3 345
[*,4,9,4]  1 455 2 496 3 525
[*,5,9,4]  1 573 2 292 3 431
[*,6,9,4]  1 301 2 564 3 500
[*,7,9,4]  1 605 2 441 3 383
[*,8,9,4]  1 384 2 466 3 512
[*,9,9,4]  1 466 2 511 3 628
[*,10,9,4]  1 559 2 324 3 475
[*,1,10,4]  1 492 2 380 3 552
[*,2,10,4]  1 500 2 535 3 589
[*,3,10,4]  1 514 2 356 3 465
[*,4,10,4]  1 306 2 631 3 683
[*,5,10,4]  1 365 2 373 3 425
[*,6,10,4]  1 482 2 601 3 187
[*,7,10,4]  1 340 2 516 3 749
[*,8,10,4]  1 585 2 361 3 496
[*,9,10,4]  1 454 2 392 3 652
[*,10,10,4]  1 731 2 700 3 445
[*,1,1,5]  1 484 2 261 3 518
[*,2,1,5]  1 624 2 461 3 589
[*,3,1,5]  1 479 2 376 3 602
[*,4,1,5]  1 405 2 168 3 635
[*,5,1,5]  1 441 2 601 3 356
[*,6,1,5]  1 353 2 698 3 629
[*,7,1,5]  1 465 2 178 3 637
[*,8,1,5]  1 299 2 636 3 516
[*,9,1,5]  1 309 2 595 3 556
[*,10,1,5]  1 434 2 525 3 289
[*,1,2,5]  1 568 2 647 3 231
[*,2,2,5]  1 569 2 465 3 549
[*,3,2,5]  1 466 2 387 3 610
[*,4,2,5]  1 347 2 652 3 627
[*,5,2,5]  1 763 2 162 3 515
[*,6,2,5]  1 432 2 396 3 716
[*,7,2,5]  1 675 2 382 3 489
[*,8,2,5]  1 483 2 399 3 314
[*,9,2,5]  1 426 2 652 3 202
[*,10,2,5]  1 448 2 649 3 605
[*,1,3,5]  1 501 2 662 3 601
[*,2,3,5]  1 445 2 441 3 306
[*,3,3,5]  1 458 2 274 3 384
[*,4,3,5]  1 667 2 573 3 683
[*,5,3,5]  1 471 2 407 3 433
[*,6,3,5]  1 450 2 519 3 301
[*,7,3,5]  1 591 2 336 3 699
[*,8,3,5]  1 257 2 808 3 492
[*,9,3,5]  1 481 2 393 3 726
[*,10,3,5]  1 633 2 149 3 591
[*,1,4,5]  1 477 2 410 3 538
[*,2,4,5]  1 555 2 634 3 393
[*,3,4,5]  1 546 2 497 3 604
[*,4,4,5]  1 535 2 614 3 630
[*,5,4,5]  1 648 2 416 3 617
[*,6,4,5]  1 608 2 401 3 526
[*,7,4,5]  1 496 2 559 3 417
[*,8,4,5]  1 611 2 653 3 118
[*,9,4,5]  1 429 2 618 3 513
[*,10,4,5]  1 407 2 624 3 512
[*,1,5,5]  1 470 2 274 3 728
[*,2,5,5]  1 437 2 500 3 445
[*,3,5,5]  1 545 2 503 3 515
[*,4,5,5]  1 163 2 434 3 839
[*,5,5,5]  1 337 2 144 3 554
[*,6,5,5]  1 263 2 607 3 655
[*,7,5,5]  1 551 2 407 3 411
[*,8,5,5]  1 796 2 283 3 595
[*,9,5,5]  1 321 2 566 3 528
[*,10,5,5]  1 744 2 378 3 426
[*,1,6,5]  1 436 2 319 3 465
[*,2,6,5]  1 340 2 322 3 526
[*,3,6,5]  1 321 2 669 3 553
[*,4,6,5]  1 359 2 237 3 565
[*,5,6,5]  1 340 2 835 3 442
[*,6,6,5]  1 397 2 283 3 440
[*,7,6,5]  1 291 2 501 3 533
[*,8,6,5]  1 478 2 437 3 306
[*,9,6,5]  1 464 2 667 3 402
[*,10,6,5]  1 343 2 377 3 547
[*,1,7,5]  1 427 2 373 3 623
[*,2,7,5]  1 563 2 512 3 558
[*,3,7,5]  1 590 2 296 3 519
[*,4,7,5]  1 509 2 537 3 569
[*,5,7,5]  1 630 2 256 3 485
[*,6,7,5]  1 333 2 502 3 555
[*,7,7,5]  1 323 2 463 3 425
[*,8,7,5]  1 203 2 515 3 627
[*,9,7,5]  1 456 2 644 3 711
[*,10,7,5]  1 423 2 517 3 413
[*,1,8,5]  1 547 2 611 3 306
[*,2,8,5]  1 427 2 482 3 490
[*,3,8,5]  1 458 2 575 3 541
[*,4,8,5]  1 431 2 223 3 546
[*,5,8,5]  1 621 2 262 3 783
[*,6,8,5]  1 375 2 623 3 492
[*,7,8,5]  1 497 2 391 3 503
[*,8,8,5]  1 647 2 386 3 456
[*,9,8,5]  1 538 2 567 3 467
[*,10,8,5]  1 104 2 576 3 588
[*,1,9,5]  1 550 2 583 3 341
[*,2,9,5]  1 767 2 483 3 433
[*,3,9,5]  1 321 2 427 3 665
[*,4,9,5]  1 364 2 696 3 412
[*,5,9,5]  1 566 2 381 3 189
[*,6,9,5]  1 433 2 435 3 476
[*,7,9,5]  1 303 2 628 3 631
[*,8,9,5]  1 425 2 503 3 618
[*,9,9,5]  1 720 2 308 3 550
[*,10,9,5]  1 563 2 351 3 372
[*,1,10,5]  1 493 2 355 3 750
[*,2,10,5]  1 462 2 464 3 574
[*,3,10,5]  1 627 2 486 3 506
[*,4,10,5]  1 355 2 698 3 497
[*,5,10,5]  1 365 2 374 3 581
[*,6,10,5]  1 303 2 584 3 457
[*,7,10,5]  1 681 2 482 3 109
[*,8,10,5]  1 531 2 422 3 665
[*,9,10,5]  1 233 2 560 3 336
[*,10,10,5]  1 531 2 473 3 202
[*,1,1,6]  1 472 2 789 3 467
[*,2,1,6]  1 661 2 394 3 430
[*,3,1,6]  1 389 2 405 3 573
[*,4,1,6]  1 451 2 611 3 285
[*,5,1,6]  1 780 2 572 3 712
[*,6,1,6]  1 588 2 363 3 470
[*,7,1,6]  1 171 2 570 3 513
[*,8,1,6]  1 517 2 445 3 381
[*,9,1,6]  1 488 2 230 3 705
[*,10,1,6]  1 313 2 765 3 284
[*,1,2,6]  1 535 2 441 3 309
[*,2,2,6]  1 411 2 735 3 325
[*,3,2,6]  1 554 2 597 3 385
[*,4,2,6]  1 651 2 341 3 548
[*,5,2,6]  1 557 2 649 3 199
[*,6,2,6]  1 502 2 514 3 449
[*,7,2,6]  1 589 2 374 3 506
[*,8,2,6]  1 615 2 460 3 635
[*,9,2,6]  1 306 2 383 3 610
[*,10,2,6]  1 500 2 493 3 345
[*,1,3,6]  1 554 2 613 3 426
[*,2,3,6]  1 673 2 705 3 601
[*,3,3,6]  1 483 2 437 3 348
[*,4,3,6]  1 632 2 440 3 359
[*,5,3,6]  1 714 2 711 3 314
[*,6,3,6]  1 488 2 479 3 499
[*,7,3,6]  1 498 2 505 3 288
[*,8,3,6]  1 396 2 528 3 830
[*,9,3,6]  1 490 2 556 3 499
[*,10,3,6]  1 364 2 434 3 506
[*,1,4,6]  1 553 2 376 3 448
[*,2,4,6]  1 369 2 762 3 369
[*,3,4,6]  1 255 2 445 3 738
[*,4,4,6]  1 650 2 542 3 682
[*,5,4,6]  1 589 2 657 3 357
[*,6,4,6]  1 466 2 517 3 595
[*,7,4,6]  1 447 2 567 3 549
[*,8,4,6]  1 719 2 763 3 225
[*,9,4,6]  1 352 2 399 3 571
[*,10,4,6]  1 351 2 497 3 533
[*,1,5,6]  1 373 2 682 3 425
[*,2,5,6]  1 328 2 687 3 290
[*,3,5,6]  1 643 2 312 3 717
[*,4,5,6]  1 727 2 391 3 526
[*,5,5,6]  1 401 2 346 3 539
[*,6,5,6]  1 534 2 469 3 490
[*,7,5,6]  1 563 2 659 3 347
[*,8,5,6]  1 552 2 483 3 415
[*,9,5,6]  1 625 2 419 3 616
[*,10,5,6]  1 513 2 270 3 654
[*,1,6,6]  1 526 2 518 3 465
[*,2,6,6]  1 658 2 751 3 437
[*,3,6,6]  1 738 2 479 3 468
[*,4,6,6]  1 556 2 595 3 568
[*,5,6,6]  1 676 2 704 3 391
[*,6,6,6]  1 346 2 422 3 482
[*,7,6,6]  1 439 2 480 3 327
[*,8,6,6]  1 404 2 482 3 597
[*,9,6,6]  1 641 2 364 3 415
[*,10,6,6]  1 519 2 311 3 403
[*,1,7,6]  1 574 2 449 3 532
[*,2,7,6]  1 759 2 899 3 329
[*,3,7,6]  1 300 2 445 3 652
[*,4,7,6]  1 359 2 589 3 386
[*,5,7,6]  1 646 2 565 3 328
[*,6,7,6]  1 400 2 659 3 420
[*,7,7,6]  1 745 2 229 3 490
[*,8,7,6]  1 493 2 576 3 250
[*,9,7,6]  1 159 2 644 3 381
[*,10,7,6]  1 482 2 786 3 347
[*,1,8,6]  1 417 2 603 3 492
[*,2,8,6]  1 405 2 287 3 525
[*,3,8,6]  1 318 2 679 3 453
[*,4,8,6]  1 476 2 452 3 639
[*,5,8,6]  1 251 2 488 3 719
[*,6,8,6]  1 530 2 150 3 646
[*,7,8,6]  1 271 2 395 3 423
[*,8,8,6]  1 409 2 528 3 440
[*,9,8,6]  1 488 2 579 3 497
[*,10,8,6]  1 713 2 972 3 350
[*,1,9,6]  1 473 2 291 3 274
[*,2,9,6]  1 570 2 315 3 400
[*,3,9,6]  1 348 2 595 3 690
[*,4,9,6]  1 551 2 378 3 452
[*,5,9,6]  1 382 2 188 3 443
[*,6,9,6]  1 391 2 331 3 659
[*,7,9,6]  1 458 2 434 3 587
[*,8,9,6]  1 599 2 692 3 173
[*,9,9,6]  1 427 2 367 3 413
[*,10,9,6]  1 351 2 363 3 594
[*,1,10,6]  1 591 2 432 3 425
[*,2,10,6]  1 442 2 581 3 384
[*,3,10,6]  1 517 2 363 3 445
[*,4,10,6]  1 417 2 569 3 318
[*,5,10,6]  1 564 2 533 3 466
[*,6,10,6]  1 565 2 270 3 487
[*,7,10,6]  1 655 2 602 3 251
[*,8,10,6]  1 521 2 495 3 365
[*,9,10,6]  1 321 2 746 3 462
[*,10,10,6]  1 601 2 582 3 536
[*,1,1,7]  1 625 2 310 3 668
[*,2,1,7]  1 611 2 392 3 505
[*,3,1,7]  1 353 2 578 3 772
[*,4,1,7]  1 578 2 417 3 368
[*,5,1,7]  1 431 2 296 3 489
[*,6,1,7]  1 683 2 545 3 470
[*,7,1,7]  1 495 2 278 3 556
[*,8,1,7]  1 419 2 619 3 532
[*,9,1,7]  1 396 2 351 3 459
[*,10,1,7]  1 508 2 546 3 364
[*,1,2,7]  1 537 2 249 3 439
[*,2,2,7]  1 102 2 394 3 469
[*,3,2,7]  1 603 2 568 3 292
[*,4,2,7]  1 620 2 343 3 410
[*,5,2,7]  1 233 2 225 3 562
[*,6,2,7]  1 351 2 426 3 503
[*,7,2,7]  1 656 2 623 3 600
[*,8,2,7]  1 405 2 444 3 562
[*,9,2,7]  1 332 2 594 3 423
[*,10,2,7]  1 356 2 674 3 503
[*,1,3,7]  1 513 2 475 3 544
[*,2,3,7]  1 697 2 437 3 141
[*,3,3,7]  1 516 2 165 3 497
[*,4,3,7]  1 568 2 440 3 623
[*,5,3,7]  1 519 2 584 3 633
[*,6,3,7]  1 431 2 464 3 819
[*,7,3,7]  1 275 2 532 3 672
[*,8,3,7]  1 467 2 326 3 626
[*,9,3,7]  1 458 2 496 3 382
[*,10,3,7]  1 680 2 346 3 539
[*,1,4,7]  1 698 2 316 3 303
[*,2,4,7]  1 620 2 468 3 459
[*,3,4,7]  1 405 2 477 3 440
[*,4,4,7]  1 507 2 551 3 414
[*,5,4,7]  1 406 2 250 3 483
[*,6,4,7]  1 543 2 344 3 412
[*,7,4,7]  1 585 2 347 3 299
[*,8,4,7]  1 492 2 660 3 315
[*,9,4,7]  1 580 2 488 3 624
[*,10,4,7]  1 606 2 459 3 520
[*,1,5,7]  1 510 2 634 3 271
[*,2,5,7]  1 573 2 494 3 494
[*,3,5,7]  1 427 2 559 3 594
[*,4,5,7]  1 367 2 477 3 462
[*,5,5,7]  1 489 2 243 3 709
[*,6,5,7]  1 489 2 414 3 491
[*,7,5,7]  1 337 2 442 3 560
[*,8,5,7]  1 729 2 774 3 322
[*,9,5,7]  1 409 2 742 3 507
[*,10,5,7]  1 634 2 744 3 462
[*,1,6,7]  1 558 2 317 3 195
[*,2,6,7]  1 739 2 410 3 287
[*,3,6,7]  1 253 2 658 3 390
[*,4,6,7]  1 532 2 420 3 307
[*,5,6,7]  1 361 2 434 3 586
[*,6,6,7]  1 681 2 294 3 498
[*,7,6,7]  1 401 2 576 3 651
[*,8,6,7]  1 308 2 431 3 359
[*,9,6,7]  1 280 2 216 3 338
[*,10,6,7]  1 591 2 714 3 213
[*,1,7,7]  1 574 2 603 3 338
[*,2,7,7]  1 400 2 920 3 482
[*,3,7,7]  1 429 2 720 3 395
[*,4,7,7]  1 238 2 311 3 555
[*,5,7,7]  1 705 2 356 3 305
[*,6,7,7]  1 583 2 229 3 695
[*,7,7,7]  1 439 2 486 3 365
[*,8,7,7]  1 485 2 531 3 503
[*,9,7,7]  1 513 2 484 3 377
[*,10,7,7]  1 286 2 465 3 620
[*,1,8,7]  1 381 2 676 3 398
[*,2,8,7]  1 616 2 548 3 418
[*,3,8,7]  1 499 2 480 3 616
[*,4,8,7]  1 499 2 468 3 618
[*,5,8,7]  1 821 2 561 3 135
[*,6,8,7]  1 703 2 506 3 282
[*,7,8,7]  1 454 2 480 3 332
[*,8,8,7]  1 485 2 428 3 452
[*,9,8,7]  1 409 2 494 3 702
[*,10,8,7]  1 726 2 575 3 689
[*,1,9,7]  1 465 2 426 3 557
[*,2,9,7]  1 291 2 322 3 553
[*,3,9,7]  1 412 2 398 3 507
[*,4,9,7]  1 779 2 487 3 282
[*,5,9,7]  1 728 2 558 3 248
[*,6,9,7]  1 616 2 550 3 504
[*,7,9,7]  1 558 2 436 3 381
[*,8,9,7]  1 447 2 308 3 502
[*,9,9,7]  1 520 2 578 3 445
[*,10,9,7]  1 310 2 771 3 387
[*,1,10,7]  1 441 2 561 3 432
[*,2,10,7]  1 368 2 597 3 467
[*,3,10,7]  1 719 2 600 3 374
[*,4,10,7]  1 422 2 326 3 512
[*,5,10,7]  1 455 2 343 3 601
[*,6,10,7]  1 396 2 475 3 499
[*,7,10,7]  1 440 2 420 3 494
[*,8,10,7]  1 373 2 456 3 458
[*,9,10,7]  1 615 2 542 3 330
[*,10,10,7]  1 528 2 492 3 200
[*,1,1,8]  1 403 2 556 3 569
[*,2,1,8]  1 479 2 595 3 304
[*,3,1,8]  1 620 2 320 3 530
[*,4,1,8]  1 310 2 520 3 718
[*,5,1,8]  1 575 2 498 3 252
[*,6,1,8]  1 583 2 293 3 427
[*,7,1,8]  1 416 2 557 3 220
[*,8,1,8]  1 351 2 328 3 524
[*,9,1,8]  1 539 2 406 3 531
[*,10,1,8]  1 547 2 379 3 409
[*,1,2,8]  1 314 2 542 3 450
[*,2,2,8]  1 532 2 420 3 419
[*,3,2,8]  1 596 2 347 3 513
[*,4,2,8]  1 148 2 591 3 496
[*,5,2,8]  1 461 2 574 3 558
[*,6,2,8]  1 560 2 392 3 228
[*,7,2,8]  1 399 2 570 3 359
[*,8,2,8]  1 506 2 688 3 463
[*,9,2,8]  1 524 2 795 3 312
[*,10,2,8]  1 683 2 328 3 500
[*,1,3,8]  1 382 2 807 3 195
[*,2,3,8]  1 503 2 527 3 524
[*,3,3,8]  1 439 2 852 3 534
[*,4,3,8]  1 455 2 635 3 519
[*,5,3,8]  1 631 2 593 3 671
[*,6,3,8]  1 576 2 556 3 360
[*,7,3,8]  1 689 2 296 3 418
[*,8,3,8]  1 348 2 503 3 434
[*,9,3,8]  1 788 2 251 3 394
[*,10,3,8]  1 388 2 577 3 242
[*,1,4,8]  1 507 2 528 3 427
[*,2,4,8]  1 494 2 358 3 385
[*,3,4,8]  1 580 2 269 3 467
[*,4,4,8]  1 414 2 714 3 683
[*,5,4,8]  1 665 2 458 3 547
[*,6,4,8]  1 651 2 530 3 378
[*,7,4,8]  1 522 2 448 3 285
[*,8,4,8]  1 378 2 556 3 522
[*,9,4,8]  1 560 2 654 3 217
[*,10,4,8]  1 599 2 356 3 464
[*,1,5,8]  1 457 2 586 3 757
[*,2,5,8]  1 411 2 349 3 590
[*,3,5,8]  1 658 2 322 3 322
[*,4,5,8]  1 486 2 272 3 612
[*,5,5,8]  1 484 2 590 3 525
[*,6,5,8]  1 350 2 595 3 289
[*,7,5,8]  1 420 2 467 3 495
[*,8,5,8]  1 438 2 500 3 334
[*,9,5,8]  1 603 2 410 3 760
[*,10,5,8]  1 461 2 656 3 423
[*,1,6,8]  1 266 2 515 3 511
[*,2,6,8]  1 440 2 398 3 639
[*,3,6,8]  1 484 2 769 3 659
[*,4,6,8]  1 542 2 390 3 561
[*,5,6,8]  1 244 2 230 3 787
[*,6,6,8]  1 522 2 411 3 238
[*,7,6,8]  1 732 2 536 3 372
[*,8,6,8]  1 643 2 518 3 558
[*,9,6,8]  1 504 2 424 3 426
[*,10,6,8]  1 363 2 563 3 566
[*,1,7,8]  1 380 2 502 3 627
[*,2,7,8]  1 224 2 655 3 705
[*,3,7,8]  1 469 2 614 3 497
[*,4,7,8]  1 613 2 379 3 473
[*,5,7,8]  1 491 2 766 3 418
[*,6,7,8]  1 415 2 322 3 374
[*,7,7,8]  1 555 2 399 3 455
[*,8,7,8]  1 684 2 494 3 219
[*,9,7,8]  1 593 2 609 3 275
[*,10,7,8]  1 425 2 489 3 380
[*,1,8,8]  1 626 2 448 3 687
[*,2,8,8]  1 614 2 603 3 335
[*,3,8,8]  1 443 2 397 3 482
[*,4,8,8]  1 297 2 618 3 241
[*,5,8,8]  1 604 2 657 3 161
[*,6,8,8]  1 524 2 418 3 337
[*,7,8,8]  1 328 2 669 3 627
[*,8,8,8]  1 725 2 477 3 382
[*,9,8,8]  1 429 2 610 3 394
[*,10,8,8]  1 371 2 471 3 468
[*,1,9,8]  1 493 2 492 3 586
[*,2,9,8]  1 235 2 415 3 611
[*,3,9,8]  1 329 2 583 3 711
[*,4,9,8]  1 316 2 427 3 540
[*,5,9,8]  1 565 2 582 3 366
[*,6,9,8]  1 358 2 441 3 574
[*,7,9,8]  1 601 2 232 3 674
[*,8,9,8]  1 264 2 744 3 469
[*,9,9,8]  1 602 2 395 3 295
[*,10,9,8]  1 575 2 452 3 499
[*,1,10,8]  1 361 2 615 3 582
[*,2,10,8]  1 622 2 388 3 222
[*,3,10,8]  1 427 2 479 3 493
[*,4,10,8]  1 535 2 409 3 719
[*,5,10,8]  1 528 2 598 3 528
[*,6,10,8]  1 390 2 404 3 404
[*,7,10,8]  1 745 2 326 3 540
[*,8,10,8]  1 450 2 433 3 455
[*,9,10,8]  1 541 2 478 3 563
[*,10,10,8]  1 539 2 608 3 402
[*,1,1,9]  1 366 2 437 3 470
[*,2,1,9]  1 470 2 445 3 340
[*,3,1,9]  1 554 2 355 3 602
[*,4,1,9]  1 560 2 290 3 672
[*,5,1,9]  1 530 2 501 3 398
[*,6,1,9]  1 637 2 635 3 459
[*,7,1,9]  1 338 2 797 3 392
[*,8,1,9]  1 350 2 440 3 536
[*,9,1,9]  1 445 2 346 3 635
[*,10,1,9]  1 463 2 370 3 711
[*,1,2,9]  1 584 2 398 3 287
[*,2,2,9]  1 558 2 395 3 504
[*,3,2,9]  1 429 2 354 3 354
[*,4,2,9]  1 186 2 438 3 687
[*,5,2,9]  1 563 2 348 3 435
[*,6,2,9]  1 268 2 471 3 353
[*,7,2,9]  1 453 2 680 3 445
[*,8,2,9]  1 761 2 642 3 336
[*,9,2,9]  1 443 2 715 3 538
[*,10,2,9]  1 447 2 518 3 398
[*,1,3,9]  1 675 2 418 3 607
[*,2,3,9]  1 617 2 400 3 218
[*,3,3,9]  1 559 2 228 3 443
[*,4,3,9]  1 505 2 589 3 209
[*,5,3,9]  1 572 2 566 3 440
[*,6,3,9]  1 372 2 403 3 308
[*,7,3,9]  1 582 2 271 3 476
[*,8,3,9]  1 529 2 498 3 358
[*,9,3,9]  1 609 2 541 3 235
[*,10,3,9]  1 579 2 596 3 642
[*,1,4,9]  1 387 2 697 3 479
[*,2,4,9]  1 570 2 465 3 355
[*,3,4,9]  1 265 2 649 3 417
[*,4,4,9]  1 410 2 416 3 633
[*,5,4,9]  1 535 2 687 3 443
[*,6,4,9]  1 489 2 476 3 523
[*,7,4,9]  1 293 2 400 3 480
[*,8,4,9]  1 424 2 550 3 365
[*,9,4,9]  1 319 2 477 3 563
[*,10,4,9]  1 593 2 532 3 474
[*,1,5,9]  1 494 2 523 3 332
[*,2,5,9]  1 653 2 468 3 546
[*,3,5,9]  1 567 2 345 3 378
[*,4,5,9]  1 469 2 345 3 358
[*,5,5,9]  1 398 2 755 3 492
[*,6,5,9]  1 366 2 532 3 333
[*,7,5,9]  1 556 2 453 3 597
[*,8,5,9]  1 343 2 544 3 848
[*,9,5,9]  1 562 2 654 3 566
[*,10,5,9]  1 360 2 541 3 204
[*,1,6,9]  1 545 2 512 3 308
[*,2,6,9]  1 597 2 673 3 404
[*,3,6,9]  1 423 2 168 3 825
[*,4,6,9]  1 503 2 582 3 315
[*,5,6,9]  1 263 2 522 3 410
[*,6,6,9]  1 511 2 379 3 643
[*,7,6,9]  1 767 2 323 3 342
[*,8,6,9]  1 364 2 348 3 652
[*,9,6,9]  1 492 2 518 3 563
[*,10,6,9]  1 748 2 444 3 426
[*,1,7,9]  1 440 2 300 3 610
[*,2,7,9]  1 670 2 499 3 356
[*,3,7,9]  1 620 2 627 3 515
[*,4,7,9]  1 724 2 202 3 300
[*,5,7,9]  1 475 2 636 3 476
[*,6,7,9]  1 199 2 740 3 394
[*,7,7,9]  1 640 2 304 3 696
[*,8,7,9]  1 737 2 413 3 337
[*,9,7,9]  1 696 2 760 3 400
[*,10,7,9]  1 396 2 456 3 431
[*,1,8,9]  1 628 2 532 3 287
[*,2,8,9]  1 400 2 581 3 301
[*,3,8,9]  1 528 2 632 3 158
[*,4,8,9]  1 449 2 584 3 472
[*,5,8,9]  1 628 2 558 3 705
[*,6,8,9]  1 356 2 382 3 458
[*,7,8,9]  1 578 2 716 3 461
[*,8,8,9]  1 490 2 384 3 269
[*,9,8,9]  1 430 2 431 3 628
[*,10,8,9]  1 631 2 493 3 448
[*,1,9,9]  1 572 2 346 3 404
[*,2,9,9]  1 561 2 578 3 415
[*,3,9,9]  1 659 2 306 3 337
[*,4,9,9]  1 368 2 573 3 714
[*,5,9,9]  1 600 2 383 3 389
[*,6,9,9]  1 384 2 635 3 507
[*,7,9,9]  1 333 2 889 3 388
[*,8,9,9]  1 648 2 479 3 319
[*,9,9,9]  1 467 2 395 3 520
[*,10,9,9]  1 555 2 365 3 443
[*,1,10,9]  1 307 2 582 3 538
[*,2,10,9]  1 509 2 609 3 358
[*,3,10,9]  1 654 2 618 3 357
[*,4,10,9]  1 792 2 376 3 398
[*,5,10,9]  1 492 2 349 3 455
[*,6,10,9]  1 396 2 514 3 649
[*,7,10,9]  1 420 2 627 3 406
[*,8,10,9]  1 466 2 452 3 696
[*,9,10,9]  1 537 2 338 3 539
[*,10,10,9]  1 433 2 495 3 553
[*,1,1,10]  1 489 2 432 3 419
[*,2,1,10]  1 443 2 555 3 487
[*,3,1,10]  1 661 2 701 3 478
[*,4,1,10]  1 282 2 583 3 491
[*,5,1,10]  1 830 2 428 3 269
[*,6,1,10]  1 691 2 598 3 14
[*,7,1,10]  1 365 2 546 3 273
[*,8,1,10]  1 271 2 720 3 362
[*,9,1,10]  1 272 2 570 3 635
[*,10,1,10]  1 452 2 343 3 439
[*,1,2,10]  1 223 2 566 3 408
[*,2,2,10]  1 591 2 367 3 591
[*,3,2,10]  1 707 2 378 3 635
[*,4,2,10]  1 578 2 631 3 412
[*,5,2,10]  1 464 2 633 3 238
[*,6,2,10]  1 623 2 555 3 517
[*,7,2,10]  1 502 2 286 3 540
[*,8,2,10]  1 600 2 600 3 552
[*,9,2,10]  1 295 2 521 3 497
[*,10,2,10]  1 627 2 380 3 390
[*,1,3,10]  1 553 2 486 3 440
[*,2,3,10]  1 343 2 453 3 459
[*,3,3,10]  1 510 2 498 3 467
[*,4,3,10]  1 536 2 571 3 788
[*,5,3,10]  1 522 2 512 3 480
[*,6,3,10]  1 335 2 286 3 591
[*,7,3,10]  1 651 2 317 3 91
[*,8,3,10]  1 473 2 532 3 453
[*,9,3,10]  1 498 2 436 3 476
[*,10,3,10]  1 605 2 367 3 578
[*,1,4,10]  1 600 2 546 3 564
[*,2,4,10]  1 428 2 756 3 449
[*,3,4,10]  1 402 2 506 3 390
[*,4,4,10]  1 754 2 515 3 665
[*,5,4,10]  1 403 2 726 3 402
[*,6,4,10]  1 271 2 705 3 229
[*,7,4,10]  1 423 2 546 3 681
[*,8,4,10]  1 514 2 499 3 504
[*,9,4,10]  1 340 2 678 3 353
[*,10,4,10]  1 368 2 635 3 261
[*,1,5,10]  1 451 2 705 3 473
[*,2,5,10]  1 478 2 648 3 654
[*,3,5,10]  1 330 2 329 3 537
[*,4,5,10]  1 635 2 181 3 708
[*,5,5,10]  1 658 2 460 3 663
[*,6,5,10]  1 642 2 278 3 440
[*,7,5,10]  1 290 2 739 3 461
[*,8,5,10]  1 523 2 388 3 668
[*,9,5,10]  1 397 2 260 3 604
[*,10,5,10]  1 701 2 148 3 501
[*,1,6,10]  1 441 2 571 3 607
[*,2,6,10]  1 485 2 498 3 395
[*,3,6,10]  1 468 2 591 3 501
[*,4,6,10]  1 548 2 531 3 666
[*,5,6,10]  1 447 2 548 3 553
[*,6,6,10]  1 503 2 560 3 586
[*,7,6,10]  1 664 2 443 3 492
[*,8,6,10]  1 474 2 363 3 721
[*,9,6,10]  1 594 2 561 3 519
[*,10,6,10]  1 759 2 598 3 432
[*,1,7,10]  1 492 2 520 3 447
[*,2,7,10]  1 331 2 465 3 412
[*,3,7,10]  1 494 2 417 3 692
[*,4,7,10]  1 449 2 599 3 391
[*,5,7,10]  1 477 2 614 3 508
[*,6,7,10]  1 382 2 669 3 516
[*,7,7,10]  1 446 2 603 3 444
[*,8,7,10]  1 479 2 420 3 431
[*,9,7,10]  1 790 2 367 3 596
[*,10,7,10]  1 566 2 372 3 361
[*,1,8,10]  1 531 2 445 3 522
[*,2,8,10]  1 339 2 499 3 579
[*,3,8,10]  1 672 2 378 3 544
[*,4,8,10]  1 612 2 648 3 555
[*,5,8,10]  1 614 2 343 3 417
[*,6,8,10]  1 398 2 490 3 543
[*,7,8,10]  1 510 2 486 3 429
[*,8,8,10]  1 595 2 476 3 366
[*,9,8,10]  1 516 2 380 3 493
[*,10,8,10]  1 518 2 535 3 317
[*,1,9,10]  1 532 2 587 3 365
[*,2,9,10]  1 529 2 633 3 335
[*,3,9,10]  1 515 2 831 3 507
[*,4,9,10]  1 495 2 319 3 569
[*,5,9,10]  1 610 2 612 3 441
[*,6,9,10]  1 512 2 565 3 311
[*,7,9,10]  1 560 2 542 3 181
[*,8,9,10]  1 328 2 666 3 340
[*,9,9,10]  1 337 2 261 3 541
[*,10,9,10]  1 574 2 347 3 678
[*,1,10,10]  1 583 2 543 3 570
[*,2,10,10]  1 423 2 324 3 657
[*,3,10,10]  1 583 2 569 3 285
[*,4,10,10]  1 393 2 602 3 571
[*,5,10,10]  1 120 2 353 3 756
[*,6,10,10]  1 511 2 665 3 549
[*,7,10,10]  1 523 2 456 3 469
[*,8,10,10]  1 388 2 648 3 259
[*,9,10,10]  1 395 2 576 3 670
[*,10,10,10]  1 515 2 356 3 440;

#param U :=  1 955.0 2 828.0 3 986.0;
#param pu :=  1 956.0 2 972.0 3 1000.0;
#param pl :=  1 1.0 2 144.0 3 14.0;
